unsat
(define-fun SC ((s (_ BitVec 4)) (t (_ BitVec 4))) Bool true)
0.01user 0.00system 0:00.01elapsed 93%CPU (0avgtext+0avgdata 24296maxresident)k
16inputs+8outputs (0major+765minor)pagefaults 0swaps
